c Random 8-CNF over 30 variables and 210 clauses
c Generated with `cnfgen`
c (C) 2012-2016 Massimo Lauria <lauria.massimo@gmail.com>
c https://massimolauria.github.io/cnfgen
c
c COMMAND LINE: cnfgen --output tmp-8-30-210.dimacs --output-format dimacs randkcnf 8 30 210
c
c sdimacs generated by gen-sdimacs
c
p cnf 30 210
r 0.5 1 2 3 4 5 6 7 8 9 10 11 12 13 14 15 0
e  16 17 18 19 20 21 22 23 24 25 26 27 28 29 30 0
-2 -4 5 6 -7 -10 -17 -20 0
7 -8 -13 18 -20 21 25 30 0
-1 -3 6 7 9 -16 -26 -30 0
3 5 -13 -17 -18 -19 -24 30 0
3 5 -10 -15 18 -23 24 28 0
-3 5 7 -9 -10 22 24 -27 0
-1 -5 -11 12 14 -23 25 -28 0
-1 3 11 -23 26 27 -28 29 0
3 5 -7 -13 22 -26 29 30 0
4 -5 7 12 -13 -16 -22 23 0
6 -10 13 -22 23 -26 -27 -28 0
-1 -3 -8 -16 -17 -20 -23 30 0
1 -5 -6 16 18 24 28 29 0
-4 5 -7 11 16 24 28 30 0
-6 8 10 12 -16 -26 -28 -29 0
-3 -8 -9 11 13 -17 21 30 0
2 -3 11 12 -14 -17 -25 -27 0
4 -5 -12 13 -14 20 -22 23 0
-1 -2 8 -11 18 20 21 24 0
3 4 7 -13 19 -21 -22 -30 0
-3 9 -10 13 14 18 21 22 0
-6 12 13 -21 25 27 -28 -30 0
-4 -7 -13 -14 16 22 -24 29 0
1 9 -13 -14 -15 -16 22 26 0
-4 6 9 10 -11 18 -23 -26 0
7 -8 9 -10 13 14 16 -18 0
-4 8 14 21 -22 -23 27 -29 0
-1 2 -7 11 -12 18 -19 29 0
8 -9 -11 -15 22 -23 27 -30 0
-7 -8 17 -22 24 28 -29 30 0
5 -6 -15 -18 -24 -25 28 -30 0
-2 6 7 10 -13 14 -24 28 0
1 2 -4 -19 -22 -28 -29 -30 0
-2 -4 -11 13 -16 -21 23 27 0
-1 -8 10 12 -15 16 -21 -22 0
2 5 -11 -16 21 23 28 -29 0
10 14 17 18 20 21 -23 -29 0
-3 5 -8 11 -14 -16 -22 -25 0
8 9 -13 -17 -18 20 22 -27 0
1 -3 -6 -9 -11 25 -27 28 0
1 3 10 -13 18 -19 23 29 0
13 -16 17 23 24 26 -28 -30 0
-3 8 12 -15 -16 20 25 -26 0
-2 3 -4 6 15 -21 -22 26 0
5 7 -11 -12 -17 20 -21 -27 0
-2 -7 12 15 19 22 -23 -29 0
-2 11 -12 13 -20 25 -26 27 0
4 9 -11 -13 14 16 18 -24 0
3 -4 9 13 -19 -20 -22 -27 0
1 -4 -17 -18 19 27 28 -29 0
2 12 -13 19 22 23 -25 30 0
1 8 10 -16 22 23 24 30 0
-1 -3 5 -9 11 -20 -24 27 0
4 -6 -9 11 -16 21 -25 28 0
1 14 16 17 20 -23 -25 -28 0
-2 3 -4 5 -8 12 23 -30 0
4 7 8 -9 -10 16 21 -29 0
3 -9 10 -14 22 -23 -26 -30 0
-1 -3 -4 16 21 22 -23 25 0
-1 7 -10 14 20 23 -28 -29 0
1 -13 14 -15 -23 24 26 -27 0
-5 -8 -10 -13 14 22 29 30 0
-3 4 10 -14 -16 -19 -22 29 0
2 -5 14 -21 -24 -26 -27 -29 0
-2 -5 -12 -22 -23 24 25 28 0
-14 -16 -19 -20 -24 26 -27 -28 0
1 -12 -13 15 -24 26 29 -30 0
-1 3 4 5 13 -17 20 -30 0
-4 5 -8 -12 13 17 20 -21 0
-3 -10 13 -14 -20 -23 -24 -27 0
1 4 -14 -15 -19 -22 -24 25 0
-4 7 8 9 -12 -14 15 25 0
6 8 9 11 -16 -24 -25 -27 0
-4 6 10 -16 19 -20 -22 28 0
1 -4 -6 -11 -12 18 -19 28 0
-4 -7 10 -11 21 24 -26 -27 0
4 -7 13 -15 16 -18 23 27 0
-1 -4 5 8 13 17 23 -30 0
-8 -12 -14 -16 17 18 21 23 0
-2 -3 -7 8 13 -19 -24 25 0
1 3 5 -6 7 -9 -26 28 0
4 -9 15 17 24 -25 28 -30 0
3 13 20 21 -24 -26 -27 28 0
1 3 8 -20 21 22 24 30 0
-1 -3 -5 -7 12 -13 22 28 0
1 -12 -13 -16 -19 24 25 26 0
1 5 -6 -7 -11 -16 19 -29 0
3 -8 15 -17 -18 22 -26 -28 0
6 -8 -10 -11 -15 16 20 -27 0
1 -3 7 -8 -13 14 16 18 0
-1 -2 5 -11 -16 -17 -27 -28 0
1 -11 -12 14 16 22 -25 -26 0
-4 7 -10 -11 -15 17 20 -21 0
-3 4 -15 -16 17 -22 23 -26 0
2 -4 -10 20 -22 25 26 27 0
-3 -10 -11 12 -13 18 -23 26 0
-13 -14 16 17 22 -24 25 -30 0
-1 4 -6 18 20 -21 22 24 0
-16 -17 -18 22 -25 27 -28 -30 0
-2 6 12 13 17 -21 24 26 0
-3 6 -7 -10 -12 -17 -23 29 0
-3 -7 -8 9 -12 24 25 -29 0
-1 -11 13 15 18 -20 21 30 0
1 9 -11 -13 -17 -21 25 30 0
2 5 7 12 14 -21 -24 -25 0
3 -7 -9 -11 13 -26 -28 29 0
1 4 -6 11 12 -14 -24 -28 0
4 -5 -9 -14 16 22 27 28 0
-4 6 -8 -9 -11 12 -13 22 0
-2 3 5 -8 -9 -21 -22 -24 0
3 4 -5 -15 -21 -22 -23 28 0
-5 -8 -13 16 -20 21 -25 -28 0
-4 7 8 18 -22 23 -27 -29 0
8 -9 17 21 25 27 28 -30 0
-5 -14 -18 -20 -21 22 29 -30 0
-1 2 3 -4 -9 -17 -21 25 0
-5 11 -17 19 -20 -24 27 29 0
-1 -2 5 12 -18 19 23 -28 0
-4 7 -12 -14 -15 25 26 30 0
-1 5 -13 -15 -18 -23 29 -30 0
-1 -2 -5 6 15 21 24 26 0
5 -7 -12 -18 -19 -25 -27 -28 0
1 2 5 -7 -15 -17 -23 -28 0
1 -8 10 13 -16 23 27 -28 0
3 13 16 -17 19 -21 -26 -30 0
1 5 7 8 13 -15 -17 -28 0
7 -16 -18 19 -22 25 28 29 0
-6 8 -12 -22 24 -25 -26 -30 0
1 -3 -5 17 -20 25 -26 30 0
-1 -3 4 7 9 19 22 -24 0
8 -11 12 14 -15 -17 24 -29 0
3 11 13 -16 -22 -24 -26 27 0
3 5 7 -10 -12 -22 25 -26 0
2 -3 -5 -9 11 -20 22 27 0
-8 -11 13 14 -15 -19 -20 22 0
3 -6 -8 -10 -12 -20 -21 27 0
-2 3 16 -17 19 20 -21 23 0
4 13 -20 24 -25 -26 28 30 0
-9 10 12 -14 -16 -20 -24 -25 0
-4 -7 -9 -11 14 22 27 29 0
-2 -7 9 -11 12 -14 -21 -24 0
9 10 17 20 -21 -26 -27 -28 0
-1 -3 -4 -9 14 15 27 -28 0
-2 -3 -5 -11 12 -15 18 20 0
1 -12 13 18 20 -23 28 29 0
8 9 14 17 22 -23 26 29 0
-1 -5 -7 -9 14 -21 -25 -27 0
2 -4 10 11 21 -24 25 27 0
3 -5 -10 -12 -13 22 -23 30 0
-5 12 13 -17 -20 -21 -22 23 0
8 10 12 16 -17 18 -24 -25 0
3 6 12 -13 23 24 26 -27 0
-9 18 20 -21 -22 -27 28 30 0
6 -8 11 -14 -15 -16 -18 -20 0
-1 7 -10 11 15 16 20 29 0
-6 -10 11 -13 15 17 -21 -29 0
9 -11 13 20 -22 -25 26 28 0
-8 -13 16 -18 19 22 27 30 0
4 5 -10 -14 23 -24 -25 -29 0
-1 9 -14 -19 25 26 -27 -28 0
-3 -9 12 -18 20 21 26 30 0
4 5 6 -7 13 24 26 29 0
3 -4 -5 -10 16 -19 26 -29 0
4 7 17 -19 -20 23 28 -30 0
-1 5 12 -14 -22 -24 -25 -28 0
-3 5 -7 8 -9 19 -20 -26 0
1 5 7 12 -18 21 22 -24 0
3 -6 11 17 23 -24 27 -28 0
-4 11 -12 15 -21 27 29 30 0
-1 3 4 -8 -18 -23 26 30 0
-6 9 -10 11 12 -19 21 27 0
-5 -9 -11 -16 17 24 25 -30 0
2 -3 4 5 -13 20 -21 -24 0
-1 8 -9 10 -16 20 -28 30 0
-10 -11 -14 17 18 -21 -28 -29 0
6 7 8 13 15 -18 -19 24 0
2 -3 9 12 -19 -22 -23 25 0
2 8 -10 -16 24 25 -27 30 0
2 -6 -7 -9 13 -17 19 23 0
3 -4 -9 -16 17 -20 -23 -25 0
-4 -12 -13 16 -17 -24 -28 29 0
-3 -4 -16 17 20 21 25 -27 0
1 2 4 -5 -6 10 12 -23 0
1 6 7 11 12 14 26 30 0
2 -9 -12 -13 14 -24 -25 26 0
-6 -12 -15 20 -24 26 27 28 0
1 -5 8 9 -10 16 -18 22 0
-4 -7 -11 13 15 16 -23 24 0
3 -5 -6 10 -16 -19 -25 -27 0
7 8 -9 12 -18 -19 -20 23 0
-3 -12 -14 17 -19 27 28 -30 0
-1 -6 -7 14 19 20 -21 23 0
-1 2 4 6 10 16 22 24 0
-2 3 -4 -10 -14 20 -26 -29 0
2 4 -6 -15 -18 20 -23 -26 0
2 -4 -6 -10 -19 24 -29 30 0
-3 10 -11 12 -14 22 23 -26 0
1 3 -7 -8 11 -15 23 28 0
3 -4 -9 20 -26 -27 -28 -29 0
3 4 8 -11 15 17 -23 -29 0
-1 -3 -10 11 -12 19 26 27 0
3 4 -16 -18 20 24 -27 -28 0
-6 8 -12 14 16 -17 18 -19 0
1 -13 15 -18 19 -23 -26 -30 0
-2 4 -6 -13 16 21 24 -26 0
2 8 11 -17 -19 -22 -25 -28 0
-1 -5 -9 -11 15 -22 24 -28 0
5 -7 15 -16 -18 19 22 -26 0
1 -3 8 -11 -18 21 -25 -28 0
2 -11 -14 15 21 22 24 30 0
